n_nodes = 630;
M = 6701;
n_domains = 18;
domain_link_weights = [|0,6701,6701,358,6701,6701,6701,6701,6701,6701,6701,6701,6701,6701,6701,6701,6701,6701|6701,0,6701,6701,6701,479,344,264,6701,6701,6701,6701,6701,6701,6701,6701,6701,6701|6701,6701,0,6701,6701,6701,6701,6701,6701,972,6701,6701,6701,6701,1788,6701,6701,6701|6701,6701,6701,0,6701,6701,6701,6701,6701,6701,6701,6701,6701,6701,6701,6701,6701,6701|6701,6701,6701,6701,0,364,358,173,6701,6701,6701,6701,6701,6701,6701,6701,6701,6223|6701,6701,6701,6701,6701,0,6701,6701,6701,6701,6701,6701,6701,6701,6701,6701,6701,6701|6701,6701,6701,6701,6701,6701,0,6701,5585,6701,6701,6701,6701,6701,6701,6701,6701,6701|6701,6701,6701,6701,6701,6701,6701,0,6701,6701,6701,6701,6701,6701,6701,6701,6701,6701|6701,6701,6701,6701,6701,6701,6701,6701,0,6701,6701,6701,6701,6701,6701,1148,556,350|6701,6701,6701,6701,6701,6701,6701,6701,6701,0,6701,6701,6701,2562,6701,943,6701,852|6701,6701,6701,6701,6701,6701,6701,6701,6701,6701,0,1141,6701,6701,6701,2795,6701,6701|6701,6701,6701,6701,6701,6701,6701,6701,6701,6701,6701,0,492,6701,6701,2963,6701,3855|6701,6701,6701,6701,6701,6701,6701,6701,6701,6701,6701,6701,0,575,1995,2807,6701,6701|6701,6701,6701,6701,6701,6701,6701,6701,6701,6701,6701,6701,6701,0,1425,6701,6701,6701|6701,6701,6701,6701,6701,6701,6701,6701,6701,6701,6701,6701,6701,6701,0,1291,6701,1872|6701,6701,6701,6701,6701,6701,6701,6701,6701,6701,6701,6701,6701,6701,6701,0,704,916|6701,6701,6701,6701,6701,6701,6701,6701,6701,6701,6701,6701,6701,6701,6701,6701,0,6701|6701,6701,6701,6701,6701,6701,6701,6701,6701,6701,6701,6701,6701,6701,6701,6701,6701,0|];
num_node_links = 1255;
node_links = [|1,3|1,4|2,6|2,7|2,8|3,10|3,15|5,6|5,7|5,8|5,18|7,9|9,16|9,17|9,18|10,14|10,16|10,18|11,12|11,16|12,13|12,16|12,18|13,14|13,15|13,16|14,15|15,16|15,18|16,17|16,18|1,19|19,1|1,38|38,1|1,57|57,1|1,78|78,1|1,87|87,1|1,102|102,1|1,113|113,1|1,137|137,1|1,169|169,1|1,171|171,1|1,186|186,1|1,200|200,1|1,253|253,1|1,261|261,1|1,304|304,1|1,305|305,1|1,306|306,1|1,339|339,1|1,362|362,1|1,387|387,1|1,417|417,1|1,439|439,1|1,443|443,1|1,466|466,1|1,467|467,1|1,470|470,1|1,482|482,1|1,510|510,1|1,549|549,1|1,573|573,1|1,583|583,1|1,591|591,1|1,616|616,1|1,627|627,1|2,20|20,2|2,37|37,2|2,46|46,2|2,53|53,2|2,67|67,2|2,94|94,2|2,122|122,2|2,201|201,2|2,230|230,2|2,235|235,2|2,238|238,2|2,239|239,2|2,274|274,2|2,281|281,2|2,287|287,2|2,299|299,2|2,316|316,2|2,321|321,2|2,325|325,2|2,354|354,2|2,359|359,2|2,380|380,2|2,381|381,2|2,400|400,2|2,422|422,2|2,479|479,2|2,480|480,2|2,506|506,2|2,537|537,2|2,539|539,2|2,554|554,2|2,574|574,2|2,617|617,2|2,628|628,2|3,21|21,3|3,77|77,3|3,119|119,3|3,128|128,3|3,140|140,3|3,148|148,3|3,153|153,3|3,247|247,3|3,270|270,3|3,280|280,3|3,301|301,3|3,303|303,3|3,317|317,3|3,357|357,3|3,373|373,3|3,375|375,3|3,384|384,3|3,394|394,3|3,413|413,3|3,447|447,3|3,448|448,3|3,461|461,3|3,464|464,3|3,494|494,3|3,513|513,3|3,548|548,3|3,552|552,3|3,555|555,3|3,569|569,3|3,580|580,3|3,586|586,3|3,609|609,3|3,613|613,3|3,614|614,3|4,22|22,4|4,71|71,4|4,80|80,4|4,81|81,4|4,83|83,4|4,101|101,4|4,107|107,4|4,124|124,4|4,138|138,4|4,183|183,4|4,187|187,4|4,207|207,4|4,216|216,4|4,221|221,4|4,237|237,4|4,246|246,4|4,250|250,4|4,309|309,4|4,315|315,4|4,322|322,4|4,331|331,4|4,342|342,4|4,355|355,4|4,372|372,4|4,378|378,4|4,437|437,4|4,457|457,4|4,459|459,4|4,483|483,4|4,495|495,4|4,525|525,4|4,546|546,4|4,611|611,4|4,618|618,4|5,23|23,5|5,44|44,5|5,51|51,5|5,59|59,5|5,60|60,5|5,70|70,5|5,86|86,5|5,93|93,5|5,117|117,5|5,141|141,5|5,146|146,5|5,159|159,5|5,172|172,5|5,249|249,5|5,277|277,5|5,288|288,5|5,300|300,5|5,311|311,5|5,319|319,5|5,330|330,5|5,334|334,5|5,338|338,5|5,352|352,5|5,364|364,5|5,397|397,5|5,450|450,5|5,456|456,5|5,460|460,5|5,472|472,5|5,527|527,5|5,535|535,5|5,577|577,5|5,579|579,5|5,612|612,5|6,24|24,6|6,43|43,6|6,89|89,6|6,104|104,6|6,126|126,6|6,134|134,6|6,142|142,6|6,149|149,6|6,158|158,6|6,161|161,6|6,167|167,6|6,182|182,6|6,185|185,6|6,212|212,6|6,233|233,6|6,240|240,6|6,255|255,6|6,289|289,6|6,314|314,6|6,326|326,6|6,335|335,6|6,371|371,6|6,383|383,6|6,389|389,6|6,391|391,6|6,398|398,6|6,403|403,6|6,419|419,6|6,462|462,6|6,463|463,6|6,502|502,6|6,545|545,6|6,578|578,6|6,588|588,6|7,25|25,7|7,49|49,7|7,90|90,7|7,91|91,7|7,95|95,7|7,112|112,7|7,129|129,7|7,132|132,7|7,198|198,7|7,208|208,7|7,223|223,7|7,265|265,7|7,286|286,7|7,327|327,7|7,343|343,7|7,369|369,7|7,370|370,7|7,410|410,7|7,411|411,7|7,429|429,7|7,438|438,7|7,485|485,7|7,486|486,7|7,503|503,7|7,507|507,7|7,531|531,7|7,536|536,7|7,542|542,7|7,565|565,7|7,571|571,7|7,589|589,7|7,605|605,7|7,610|610,7|7,629|629,7|8,26|26,8|8,63|63,8|8,99|99,8|8,116|116,8|8,130|130,8|8,144|144,8|8,173|173,8|8,184|184,8|8,189|189,8|8,190|190,8|8,211|211,8|8,214|214,8|8,228|228,8|8,234|234,8|8,244|244,8|8,252|252,8|8,256|256,8|8,296|296,8|8,313|313,8|8,351|351,8|8,386|386,8|8,428|428,8|8,442|442,8|8,452|452,8|8,475|475,8|8,487|487,8|8,488|488,8|8,526|526,8|8,528|528,8|8,585|585,8|8,587|587,8|8,597|597,8|8,601|601,8|8,624|624,8|9,27|27,9|9,50|50,9|9,58|58,9|9,68|68,9|9,74|74,9|9,100|100,9|9,133|133,9|9,164|164,9|9,168|168,9|9,219|219,9|9,242|242,9|9,259|259,9|9,269|269,9|9,297|297,9|9,302|302,9|9,346|346,9|9,348|348,9|9,356|356,9|9,367|367,9|9,377|377,9|9,401|401,9|9,405|405,9|9,412|412,9|9,416|416,9|9,424|424,9|9,444|444,9|9,471|471,9|9,481|481,9|9,491|491,9|9,501|501,9|9,529|529,9|9,558|558,9|9,584|584,9|9,615|615,9|10,28|28,10|10,47|47,10|10,62|62,10|10,72|72,10|10,155|155,10|10,192|192,10|10,194|194,10|10,195|195,10|10,225|225,10|10,243|243,10|10,264|264,10|10,271|271,10|10,276|276,10|10,283|283,10|10,298|298,10|10,340|340,10|10,344|344,10|10,365|365,10|10,395|395,10|10,396|396,10|10,404|404,10|10,478|478,10|10,493|493,10|10,496|496,10|10,500|500,10|10,514|514,10|10,516|516,10|10,532|532,10|10,534|534,10|10,540|540,10|10,560|560,10|10,561|561,10|10,593|593,10|10,607|607,10|11,29|29,11|11,45|45,11|11,75|75,11|11,145|145,11|11,150|150,11|11,156|156,11|11,162|162,11|11,177|177,11|11,197|197,11|11,254|254,11|11,262|262,11|11,272|272,11|11,273|273,11|11,279|279,11|11,294|294,11|11,328|328,11|11,415|415,11|11,421|421,11|11,430|430,11|11,440|440,11|11,455|455,11|11,465|465,11|11,468|468,11|11,484|484,11|11,509|509,11|11,515|515,11|11,530|530,11|11,543|543,11|11,550|550,11|11,564|564,11|11,595|595,11|11,598|598,11|11,608|608,11|11,626|626,11|12,30|30,12|12,41|41,12|12,55|55,12|12,76|76,12|12,79|79,12|12,85|85,12|12,103|103,12|12,136|136,12|12,174|174,12|12,196|196,12|12,206|206,12|12,275|275,12|12,293|293,12|12,318|318,12|12,320|320,12|12,337|337,12|12,341|341,12|12,358|358,12|12,360|360,12|12,361|361,12|12,376|376,12|12,408|408,12|12,433|433,12|12,446|446,12|12,458|458,12|12,477|477,12|12,492|492,12|12,512|512,12|12,553|553,12|12,576|576,12|12,582|582,12|12,592|592,12|12,602|602,12|12,619|619,12|13,31|31,13|13,39|39,13|13,52|52,13|13,84|84,13|13,97|97,13|13,106|106,13|13,120|120,13|13,127|127,13|13,131|131,13|13,154|154,13|13,160|160,13|13,163|163,13|13,204|204,13|13,245|245,13|13,260|260,13|13,268|268,13|13,282|282,13|13,349|349,13|13,363|363,13|13,379|379,13|13,399|399,13|13,420|420,13|13,441|441,13|13,449|449,13|13,505|505,13|13,511|511,13|13,517|517,13|13,520|520,13|13,522|522,13|13,538|538,13|13,541|541,13|13,563|563,13|13,596|596,13|13,603|603,13|14,32|32,14|14,105|105,14|14,111|111,14|14,114|114,14|14,121|121,14|14,147|147,14|14,157|157,14|14,175|175,14|14,176|176,14|14,178|178,14|14,180|180,14|14,203|203,14|14,205|205,14|14,213|213,14|14,231|231,14|14,251|251,14|14,284|284,14|14,291|291,14|14,310|310,14|14,366|366,14|14,382|382,14|14,388|388,14|14,392|392,14|14,407|407,14|14,414|414,14|14,423|423,14|14,425|425,14|14,469|469,14|14,489|489,14|14,497|497,14|14,544|544,14|14,566|566,14|14,600|600,14|14,606|606,14|15,33|33,15|15,42|42,15|15,65|65,15|15,69|69,15|15,108|108,15|15,123|123,15|15,135|135,15|15,139|139,15|15,151|151,15|15,181|181,15|15,191|191,15|15,209|209,15|15,215|215,15|15,222|222,15|15,258|258,15|15,266|266,15|15,292|292,15|15,308|308,15|15,312|312,15|15,336|336,15|15,350|350,15|15,432|432,15|15,445|445,15|15,474|474,15|15,490|490,15|15,518|518,15|15,559|559,15|15,562|562,15|15,568|568,15|15,570|570,15|15,572|572,15|15,622|622,15|15,623|623,15|15,630|630,15|16,34|34,16|16,40|40,16|16,54|54,16|16,56|56,16|16,98|98,16|16,125|125,16|16,143|143,16|16,152|152,16|16,170|170,16|16,179|179,16|16,210|210,16|16,217|217,16|16,224|224,16|16,236|236,16|16,241|241,16|16,248|248,16|16,257|257,16|16,263|263,16|16,323|323,16|16,333|333,16|16,368|368,16|16,385|385,16|16,409|409,16|16,427|427,16|16,434|434,16|16,435|435,16|16,451|451,16|16,476|476,16|16,498|498,16|16,499|499,16|16,504|504,16|16,523|523,16|16,567|567,16|16,599|599,16|17,35|35,17|17,64|64,17|17,66|66,17|17,88|88,17|17,110|110,17|17,166|166,17|17,188|188,17|17,199|199,17|17,202|202,17|17,218|218,17|17,220|220,17|17,226|226,17|17,232|232,17|17,278|278,17|17,290|290,17|17,324|324,17|17,329|329,17|17,345|345,17|17,347|347,17|17,353|353,17|17,393|393,17|17,418|418,17|17,426|426,17|17,436|436,17|17,454|454,17|17,473|473,17|17,508|508,17|17,533|533,17|17,547|547,17|17,551|551,17|17,581|581,17|17,590|590,17|17,594|594,17|17,621|621,17|18,36|36,18|18,48|48,18|18,61|61,18|18,73|73,18|18,82|82,18|18,92|92,18|18,96|96,18|18,109|109,18|18,115|115,18|18,118|118,18|18,165|165,18|18,193|193,18|18,227|227,18|18,229|229,18|18,267|267,18|18,285|285,18|18,295|295,18|18,307|307,18|18,332|332,18|18,374|374,18|18,390|390,18|18,402|402,18|18,406|406,18|18,431|431,18|18,453|453,18|18,519|519,18|18,521|521,18|18,524|524,18|18,556|556,18|18,557|557,18|18,575|575,18|18,604|604,18|18,620|620,18|18,625|625,18|];
nodes = [|1,9,0,0,0,0,1,1|2,9,0,0,0,0,1,2|3,9,0,0,0,0,1,3|4,9,0,0,0,0,1,4|5,9,0,0,0,0,1,5|6,9,0,0,0,0,1,6|7,9,0,0,0,0,1,7|8,9,0,0,0,0,1,8|9,9,0,0,0,0,1,9|10,9,0,0,0,0,1,10|11,9,0,0,0,0,1,11|12,9,0,0,0,0,1,12|13,9,0,0,0,0,1,13|14,9,0,0,0,0,1,14|15,9,0,0,0,0,1,15|16,9,0,0,0,0,1,16|17,9,0,0,0,0,1,17|18,9,0,0,0,0,1,18|19,10,0,0,0,0,1,1|20,10,0,0,0,0,1,2|21,10,0,0,0,0,1,3|22,10,0,0,0,0,1,4|23,10,0,0,0,0,1,5|24,10,0,0,0,0,1,6|25,10,0,0,0,0,1,7|26,10,0,0,0,0,1,8|27,10,0,0,0,0,1,9|28,10,0,0,0,0,1,10|29,10,0,0,0,0,1,11|30,10,0,0,0,0,1,12|31,10,0,0,0,0,1,13|32,10,0,0,0,0,1,14|33,10,0,0,0,0,1,15|34,10,0,0,0,0,1,16|35,10,0,0,0,0,1,17|36,10,0,0,0,0,1,18|37,1,0,0,0,0,1,2|38,2,0,0,0,0,1,1|39,4,0,0,0,0,1,13|40,5,0,0,0,0,1,16|41,2,0,0,0,0,1,12|42,1,0,0,0,0,1,15|43,4,0,0,0,0,1,6|44,3,0,0,0,0,1,5|45,1,0,0,0,0,1,11|46,5,0,0,0,0,1,2|47,2,0,0,0,0,1,10|48,4,0,0,0,0,1,18|49,5,0,0,0,0,1,7|50,5,0,0,0,0,1,9|51,5,0,0,0,0,1,5|52,5,0,0,0,0,1,13|53,1,0,0,0,0,1,2|54,5,0,0,0,0,1,16|55,2,0,0,0,0,1,12|56,5,0,0,0,0,1,16|57,1,0,0,0,0,1,1|58,1,0,0,0,0,1,9|59,3,0,0,0,0,1,5|60,3,0,0,0,0,1,5|61,5,0,0,0,0,1,18|62,3,0,0,0,0,1,10|63,2,0,0,0,0,1,8|64,2,0,0,0,0,1,17|65,4,0,0,0,0,1,15|66,5,0,0,0,0,1,17|67,5,0,0,0,0,1,2|68,3,0,0,0,0,1,9|69,3,0,0,0,0,1,15|70,4,0,0,0,0,1,5|71,4,0,0,0,0,1,4|72,1,0,0,0,0,1,10|73,1,0,0,0,0,1,18|74,3,0,0,0,0,1,9|75,4,0,0,0,0,1,11|76,1,0,0,0,0,1,12|77,1,0,0,0,0,1,3|78,3,0,0,0,0,1,1|79,4,0,0,0,0,1,12|80,1,0,0,0,0,1,4|81,4,0,0,0,0,1,4|82,4,0,0,0,0,1,18|83,1,0,0,0,0,1,4|84,5,0,0,0,0,1,13|85,5,0,0,0,0,1,12|86,5,0,0,0,0,1,5|87,1,0,0,0,0,1,1|88,3,0,0,0,0,1,17|89,5,0,0,0,0,1,6|90,1,0,0,0,0,1,7|91,3,0,0,0,0,1,7|92,4,0,0,0,0,1,18|93,5,0,0,0,0,1,5|94,5,0,0,0,0,1,2|95,1,0,0,0,0,1,7|96,3,0,0,0,0,1,18|97,4,0,0,0,0,1,13|98,1,0,0,0,0,1,16|99,2,0,0,0,0,1,8|100,3,0,0,0,0,1,9|101,3,0,0,0,0,1,4|102,5,0,0,0,0,1,1|103,1,0,0,0,0,1,12|104,5,0,0,0,0,1,6|105,4,0,0,0,0,1,14|106,4,0,0,0,0,1,13|107,1,0,0,0,0,1,4|108,1,0,0,0,0,1,15|109,3,0,0,0,0,1,18|110,2,0,0,0,0,1,17|111,3,0,0,0,0,1,14|112,2,0,0,0,0,1,7|113,3,0,0,0,0,1,1|114,3,0,0,0,0,1,14|115,1,0,0,0,0,1,18|116,5,0,0,0,0,1,8|117,4,0,0,0,0,1,5|118,1,0,0,0,0,1,18|119,3,0,0,0,0,1,3|120,1,0,0,0,0,1,13|121,2,0,0,0,0,1,14|122,3,0,0,0,0,1,2|123,2,0,0,0,0,1,15|124,4,0,0,0,0,1,4|125,4,0,0,0,0,1,16|126,1,0,0,0,0,1,6|127,5,0,0,0,0,1,13|128,1,0,0,0,0,1,3|129,5,0,0,0,0,1,7|130,2,0,0,0,0,1,8|131,2,0,0,0,0,1,13|132,1,0,0,0,0,1,7|133,3,0,0,0,0,1,9|134,4,0,0,0,0,1,6|135,5,0,0,0,0,1,15|136,2,0,0,0,0,1,12|137,3,0,0,0,0,1,1|138,1,0,0,0,0,1,4|139,1,0,0,0,0,1,15|140,4,0,0,0,0,1,3|141,3,0,0,0,0,1,5|142,4,0,0,0,0,1,6|143,4,0,0,0,0,1,16|144,4,0,0,0,0,1,8|145,1,0,0,0,0,1,11|146,3,0,0,0,0,1,5|147,4,0,0,0,0,1,14|148,4,0,0,0,0,1,3|149,5,0,0,0,0,1,6|150,5,0,0,0,0,1,11|151,2,0,0,0,0,1,15|152,5,0,0,0,0,1,16|153,1,0,0,0,0,1,3|154,4,0,0,0,0,1,13|155,1,0,0,0,0,1,10|156,1,0,0,0,0,1,11|157,4,0,0,0,0,1,14|158,4,0,0,0,0,1,6|159,3,0,0,0,0,1,5|160,5,0,0,0,0,1,13|161,4,0,0,0,0,1,6|162,2,0,0,0,0,1,11|163,4,0,0,0,0,1,13|164,1,0,0,0,0,1,9|165,4,0,0,0,0,1,18|166,5,0,0,0,0,1,17|167,1,0,0,0,0,1,6|168,1,0,0,0,0,1,9|169,4,0,0,0,0,1,1|170,3,0,0,0,0,1,16|171,1,0,0,0,0,1,1|172,1,0,0,0,0,1,5|173,2,0,0,0,0,1,8|174,2,0,0,0,0,1,12|175,2,0,0,0,0,1,14|176,3,0,0,0,0,1,14|177,1,0,0,0,0,1,11|178,5,0,0,0,0,1,14|179,3,0,0,0,0,1,16|180,5,0,0,0,0,1,14|181,1,0,0,0,0,1,15|182,5,0,0,0,0,1,6|183,3,0,0,0,0,1,4|184,5,0,0,0,0,1,8|185,4,0,0,0,0,1,6|186,1,0,0,0,0,1,1|187,1,0,0,0,0,1,4|188,1,0,0,0,0,1,17|189,1,0,0,0,0,1,8|190,5,0,0,0,0,1,8|191,2,0,0,0,0,1,15|192,3,0,0,0,0,1,10|193,3,0,0,0,0,1,18|194,2,0,0,0,0,1,10|195,4,0,0,0,0,1,10|196,5,0,0,0,0,1,12|197,5,0,0,0,0,1,11|198,4,0,0,0,0,1,7|199,4,0,0,0,0,1,17|200,4,0,0,0,0,1,1|201,2,0,0,0,0,1,2|202,1,0,0,0,0,1,17|203,4,0,0,0,0,1,14|204,3,0,0,0,0,1,13|205,2,0,0,0,0,1,14|206,2,0,0,0,0,1,12|207,4,0,0,0,0,1,4|208,1,0,0,0,0,1,7|209,1,0,0,0,0,1,15|210,1,0,0,0,0,1,16|211,5,0,0,0,0,1,8|212,4,0,0,0,0,1,6|213,4,0,0,0,0,1,14|214,4,0,0,0,0,1,8|215,1,0,0,0,0,1,15|216,5,0,0,0,0,1,4|217,3,0,0,0,0,1,16|218,5,0,0,0,0,1,17|219,5,0,0,0,0,1,9|220,5,0,0,0,0,1,17|221,5,0,0,0,0,1,4|222,4,0,0,0,0,1,15|223,5,0,0,0,0,1,7|224,1,0,0,0,0,1,16|225,5,0,0,0,0,1,10|226,2,0,0,0,0,1,17|227,1,0,0,0,0,1,18|228,2,0,0,0,0,1,8|229,5,0,0,0,0,1,18|230,5,0,0,0,0,1,2|231,1,0,0,0,0,1,14|232,1,0,0,0,0,1,17|233,2,0,0,0,0,1,6|234,4,0,0,0,0,1,8|235,4,0,0,0,0,1,2|236,3,0,0,0,0,1,16|237,2,0,0,0,0,1,4|238,5,0,0,0,0,1,2|239,1,0,0,0,0,1,2|240,2,0,0,0,0,1,6|241,2,0,0,0,0,1,16|242,4,0,0,0,0,1,9|243,3,0,0,0,0,1,10|244,4,0,0,0,0,1,8|245,2,0,0,0,0,1,13|246,3,0,0,0,0,1,4|247,5,0,0,0,0,1,3|248,5,0,0,0,0,1,16|249,3,0,0,0,0,1,5|250,2,0,0,0,0,1,4|251,4,0,0,0,0,1,14|252,4,0,0,0,0,1,8|253,4,0,0,0,0,1,1|254,3,0,0,0,0,1,11|255,2,0,0,0,0,1,6|256,4,0,0,0,0,1,8|257,4,0,0,0,0,1,16|258,2,0,0,0,0,1,15|259,2,0,0,0,0,1,9|260,2,0,0,0,0,1,13|261,4,0,0,0,0,1,1|262,4,0,0,0,0,1,11|263,2,0,0,0,0,1,16|264,4,0,0,0,0,1,10|265,1,0,0,0,0,1,7|266,5,0,0,0,0,1,15|267,5,0,0,0,0,1,18|268,1,0,0,0,0,1,13|269,1,0,0,0,0,1,9|270,2,0,0,0,0,1,3|271,3,0,0,0,0,1,10|272,3,0,0,0,0,1,11|273,1,0,0,0,0,1,11|274,3,0,0,0,0,1,2|275,1,0,0,0,0,1,12|276,4,0,0,0,0,1,10|277,1,0,0,0,0,1,5|278,3,0,0,0,0,1,17|279,4,0,0,0,0,1,11|280,5,0,0,0,0,1,3|281,3,0,0,0,0,1,2|282,1,0,0,0,0,1,13|283,5,0,0,0,0,1,10|284,3,0,0,0,0,1,14|285,3,0,0,0,0,1,18|286,3,0,0,0,0,1,7|287,4,0,0,0,0,1,2|288,2,0,0,0,0,1,5|289,2,0,0,0,0,1,6|290,1,0,0,0,0,1,17|291,1,0,0,0,0,1,14|292,4,0,0,0,0,1,15|293,4,0,0,0,0,1,12|294,4,0,0,0,0,1,11|295,4,0,0,0,0,1,18|296,5,0,0,0,0,1,8|297,3,0,0,0,0,1,9|298,4,0,0,0,0,1,10|299,5,0,0,0,0,1,2|300,1,0,0,0,0,1,5|301,4,0,0,0,0,1,3|302,1,0,0,0,0,1,9|303,2,0,0,0,0,1,3|304,3,0,0,0,0,1,1|305,3,0,0,0,0,1,1|306,2,0,0,0,0,1,1|307,2,0,0,0,0,1,18|308,4,0,0,0,0,1,15|309,1,0,0,0,0,1,4|310,2,0,0,0,0,1,14|311,3,0,0,0,0,1,5|312,4,0,0,0,0,1,15|313,2,0,0,0,0,1,8|314,2,0,0,0,0,1,6|315,5,0,0,0,0,1,4|316,5,0,0,0,0,1,2|317,5,0,0,0,0,1,3|318,4,0,0,0,0,1,12|319,5,0,0,0,0,1,5|320,5,0,0,0,0,1,12|321,5,0,0,0,0,1,2|322,1,0,0,0,0,1,4|323,4,0,0,0,0,1,16|324,3,0,0,0,0,1,17|325,5,0,0,0,0,1,2|326,1,0,0,0,0,1,6|327,3,0,0,0,0,1,7|328,2,0,0,0,0,1,11|329,2,0,0,0,0,1,17|330,5,0,0,0,0,1,5|331,3,0,0,0,0,1,4|332,1,0,0,0,0,1,18|333,1,0,0,0,0,1,16|334,2,0,0,0,0,1,5|335,5,0,0,0,0,1,6|336,4,0,0,0,0,1,15|337,3,0,0,0,0,1,12|338,4,0,0,0,0,1,5|339,3,0,0,0,0,1,1|340,4,0,0,0,0,1,10|341,3,0,0,0,0,1,12|342,4,0,0,0,0,1,4|343,5,0,0,0,0,1,7|344,4,0,0,0,0,1,10|345,1,0,0,0,0,1,17|346,4,0,0,0,0,1,9|347,4,0,0,0,0,1,17|348,4,0,0,0,0,1,9|349,5,0,0,0,0,1,13|350,5,0,0,0,0,1,15|351,4,0,0,0,0,1,8|352,5,0,0,0,0,1,5|353,5,0,0,0,0,1,17|354,4,0,0,0,0,1,2|355,5,0,0,0,0,1,4|356,1,0,0,0,0,1,9|357,1,0,0,0,0,1,3|358,4,0,0,0,0,1,12|359,5,0,0,0,0,1,2|360,4,0,0,0,0,1,12|361,3,0,0,0,0,1,12|362,4,0,0,0,0,1,1|363,5,0,0,0,0,1,13|364,1,0,0,0,0,1,5|365,4,0,0,0,0,1,10|366,2,0,0,0,0,1,14|367,3,0,0,0,0,1,9|368,2,0,0,0,0,1,16|369,5,0,0,0,0,1,7|370,3,0,0,0,0,1,7|371,5,0,0,0,0,1,6|372,2,0,0,0,0,1,4|373,4,0,0,0,0,1,3|374,1,0,0,0,0,1,18|375,2,0,0,0,0,1,3|376,2,0,0,0,0,1,12|377,2,0,0,0,0,1,9|378,1,0,0,0,0,1,4|379,3,0,0,0,0,1,13|380,2,0,0,0,0,1,2|381,1,0,0,0,0,1,2|382,3,0,0,0,0,1,14|383,3,0,0,0,0,1,6|384,2,0,0,0,0,1,3|385,5,0,0,0,0,1,16|386,4,0,0,0,0,1,8|387,2,0,0,0,0,1,1|388,1,0,0,0,0,1,14|389,3,0,0,0,0,1,6|390,3,0,0,0,0,1,18|391,3,0,0,0,0,1,6|392,3,0,0,0,0,1,14|393,1,0,0,0,0,1,17|394,1,0,0,0,0,1,3|395,2,0,0,0,0,1,10|396,1,0,0,0,0,1,10|397,1,0,0,0,0,1,5|398,1,0,0,0,0,1,6|399,5,0,0,0,0,1,13|400,5,0,0,0,0,1,2|401,4,0,0,0,0,1,9|402,2,0,0,0,0,1,18|403,3,0,0,0,0,1,6|404,3,0,0,0,0,1,10|405,1,0,0,0,0,1,9|406,5,0,0,0,0,1,18|407,4,0,0,0,0,1,14|408,2,0,0,0,0,1,12|409,4,0,0,0,0,1,16|410,4,0,0,0,0,1,7|411,3,0,0,0,0,1,7|412,2,0,0,0,0,1,9|413,5,0,0,0,0,1,3|414,3,0,0,0,0,1,14|415,2,0,0,0,0,1,11|416,2,0,0,0,0,1,9|417,2,0,0,0,0,1,1|418,4,0,0,0,0,1,17|419,1,0,0,0,0,1,6|420,1,0,0,0,0,1,13|421,2,0,0,0,0,1,11|422,4,0,0,0,0,1,2|423,3,0,0,0,0,1,14|424,3,0,0,0,0,1,9|425,3,0,0,0,0,1,14|426,2,0,0,0,0,1,17|427,1,0,0,0,0,1,16|428,5,0,0,0,0,1,8|429,5,0,0,0,0,1,7|430,3,0,0,0,0,1,11|431,5,0,0,0,0,1,18|432,1,0,0,0,0,1,15|433,4,0,0,0,0,1,12|434,4,0,0,0,0,1,16|435,5,0,0,0,0,1,16|436,2,0,0,0,0,1,17|437,5,0,0,0,0,1,4|438,3,0,0,0,0,1,7|439,1,0,0,0,0,1,1|440,2,0,0,0,0,1,11|441,4,0,0,0,0,1,13|442,2,0,0,0,0,1,8|443,5,0,0,0,0,1,1|444,1,0,0,0,0,1,9|445,3,0,0,0,0,1,15|446,1,0,0,0,0,1,12|447,2,0,0,0,0,1,3|448,4,0,0,0,0,1,3|449,1,0,0,0,0,1,13|450,4,0,0,0,0,1,5|451,3,0,0,0,0,1,16|452,1,0,0,0,0,1,8|453,2,0,0,0,0,1,18|454,2,0,0,0,0,1,17|455,1,0,0,0,0,1,11|456,4,0,0,0,0,1,5|457,2,0,0,0,0,1,4|458,2,0,0,0,0,1,12|459,2,0,0,0,0,1,4|460,2,0,0,0,0,1,5|461,1,0,0,0,0,1,3|462,3,0,0,0,0,1,6|463,4,0,0,0,0,1,6|464,1,0,0,0,0,1,3|465,3,0,0,0,0,1,11|466,3,0,0,0,0,1,1|467,5,0,0,0,0,1,1|468,4,0,0,0,0,1,11|469,5,0,0,0,0,1,14|470,5,0,0,0,0,1,1|471,1,0,0,0,0,1,9|472,2,0,0,0,0,1,5|473,3,0,0,0,0,1,17|474,5,0,0,0,0,1,15|475,1,0,0,0,0,1,8|476,1,0,0,0,0,1,16|477,5,0,0,0,0,1,12|478,3,0,0,0,0,1,10|479,1,0,0,0,0,1,2|480,2,0,0,0,0,1,2|481,5,0,0,0,0,1,9|482,5,0,0,0,0,1,1|483,1,0,0,0,0,1,4|484,1,0,0,0,0,1,11|485,2,0,0,0,0,1,7|486,3,0,0,0,0,1,7|487,5,0,0,0,0,1,8|488,5,0,0,0,0,1,8|489,3,0,0,0,0,1,14|490,4,0,0,0,0,1,15|491,4,0,0,0,0,1,9|492,5,0,0,0,0,1,12|493,4,0,0,0,0,1,10|494,4,0,0,0,0,1,3|495,2,0,0,0,0,1,4|496,2,0,0,0,0,1,10|497,4,0,0,0,0,1,14|498,3,0,0,0,0,1,16|499,5,0,0,0,0,1,16|500,1,0,0,0,0,1,10|501,1,0,0,0,0,1,9|502,5,0,0,0,0,1,6|503,2,0,0,0,0,1,7|504,2,0,0,0,0,1,16|505,1,0,0,0,0,1,13|506,3,0,0,0,0,1,2|507,4,0,0,0,0,1,7|508,3,0,0,0,0,1,17|509,3,0,0,0,0,1,11|510,5,0,0,0,0,1,1|511,3,0,0,0,0,1,13|512,1,0,0,0,0,1,12|513,2,0,0,0,0,1,3|514,5,0,0,0,0,1,10|515,1,0,0,0,0,1,11|516,3,0,0,0,0,1,10|517,5,0,0,0,0,1,13|518,3,0,0,0,0,1,15|519,3,0,0,0,0,1,18|520,3,0,0,0,0,1,13|521,4,0,0,0,0,1,18|522,2,0,0,0,0,1,13|523,1,0,0,0,0,1,16|524,3,0,0,0,0,1,18|525,5,0,0,0,0,1,4|526,1,0,0,0,0,1,8|527,3,0,0,0,0,1,5|528,1,0,0,0,0,1,8|529,5,0,0,0,0,1,9|530,2,0,0,0,0,1,11|531,5,0,0,0,0,1,7|532,4,0,0,0,0,1,10|533,1,0,0,0,0,1,17|534,2,0,0,0,0,1,10|535,1,0,0,0,0,1,5|536,1,0,0,0,0,1,7|537,2,0,0,0,0,1,2|538,1,0,0,0,0,1,13|539,1,0,0,0,0,1,2|540,1,0,0,0,0,1,10|541,4,0,0,0,0,1,13|542,2,0,0,0,0,1,7|543,5,0,0,0,0,1,11|544,1,0,0,0,0,1,14|545,4,0,0,0,0,1,6|546,1,0,0,0,0,1,4|547,3,0,0,0,0,1,17|548,3,0,0,0,0,1,3|549,4,0,0,0,0,1,1|550,2,0,0,0,0,1,11|551,5,0,0,0,0,1,17|552,2,0,0,0,0,1,3|553,5,0,0,0,0,1,12|554,5,0,0,0,0,1,2|555,3,0,0,0,0,1,3|556,3,0,0,0,0,1,18|557,1,0,0,0,0,1,18|558,4,0,0,0,0,1,9|559,3,0,0,0,0,1,15|560,5,0,0,0,0,1,10|561,3,0,0,0,0,1,10|562,3,0,0,0,0,1,15|563,4,0,0,0,0,1,13|564,5,0,0,0,0,1,11|565,4,0,0,0,0,1,7|566,3,0,0,0,0,1,14|567,1,0,0,0,0,1,16|568,3,0,0,0,0,1,15|569,1,0,0,0,0,1,3|570,5,0,0,0,0,1,15|571,1,0,0,0,0,1,7|572,4,0,0,0,0,1,15|573,3,0,0,0,0,1,1|574,4,0,0,0,0,1,2|575,3,0,0,0,0,1,18|576,5,0,0,0,0,1,12|577,1,0,0,0,0,1,5|578,2,0,0,0,0,1,6|579,3,0,0,0,0,1,5|580,3,0,0,0,0,1,3|581,4,0,0,0,0,1,17|582,4,0,0,0,0,1,12|583,1,0,0,0,0,1,1|584,1,0,0,0,0,1,9|585,1,0,0,0,0,1,8|586,1,0,0,0,0,1,3|587,1,0,0,0,0,1,8|588,5,0,0,0,0,1,6|589,2,0,0,0,0,1,7|590,2,0,0,0,0,1,17|591,4,0,0,0,0,1,1|592,2,0,0,0,0,1,12|593,3,0,0,0,0,1,10|594,1,0,0,0,0,1,17|595,4,0,0,0,0,1,11|596,2,0,0,0,0,1,13|597,4,0,0,0,0,1,8|598,4,0,0,0,0,1,11|599,1,0,0,0,0,1,16|600,1,0,0,0,0,1,14|601,3,0,0,0,0,1,8|602,3,0,0,0,0,1,12|603,4,0,0,0,0,1,13|604,4,0,0,0,0,1,18|605,4,0,0,0,0,1,7|606,4,0,0,0,0,1,14|607,4,0,0,0,0,1,10|608,3,0,0,0,0,1,11|609,3,0,0,0,0,1,3|610,5,0,0,0,0,1,7|611,3,0,0,0,0,1,4|612,3,0,0,0,0,1,5|613,3,0,0,0,0,1,3|614,4,0,0,0,0,1,3|615,1,0,0,0,0,1,9|616,1,0,0,0,0,1,1|617,2,0,0,0,0,1,2|618,3,0,0,0,0,1,4|619,3,0,0,0,0,1,12|620,3,0,0,0,0,1,18|621,2,0,0,0,0,1,17|622,3,0,0,0,0,1,15|623,4,0,0,0,0,1,15|624,1,0,0,0,0,1,8|625,1,0,0,0,0,1,18|626,1,0,0,0,0,1,11|627,1,0,0,0,0,1,1|628,4,0,0,0,0,1,2|629,3,0,0,0,0,1,7|630,5,0,0,0,0,1,15|];
